/*********************************************
 * OPL 12.8.0.0 Data
 * Author: HP
 * Creation Date: Jul 9, 2022 at 8:15:23 AM
 *********************************************/
t=3;
i=3;
r=1;
D=[[10,12,10],[10,12,10],[10,12,10]];
E=[[[8],[12],[13]],[[8],[12],[13]],[[8],[12],[13]]];
X=[[0,0],[0,0],[0,0]];